13 9 27 7 32 1 22 38 18 15 20 36 3 21 19 28 25 29 10 31 8 33 6 23 16 12 17 4 34 30 26 24 2 14 35 5 37 11
38 15 29 33 26 34 17 31 20 11 10 30 14 25 4 5 2 1 27 24 8 23 36 18 21 19 13 37 28 9 16 12 22 3 7 6 35 32
13 30 16 12 22 2 10 28 27 3 31 33 8 21 25 6 36 7 14 24 23 4 5 34 20 17 9 26 35 11 15 29 1 32 19 18 37 38
33 13 3 36 16 23 30 31 35 37 2 27 8 32 28 5 34 9 38 25 20 21 4 6 18 10 22 12 7 26 29 11 14 17 15 19 24 1
26 23 33 5 10 32 22 18 4 1 8 34 6 36 37 28 38 35 20 2 19 12 14 24 30 31 11 27 17 21 3 9 7 15 13 25 29 16
